76
125
87	9
86	14
85	12
84	11
83	12
82	8
81	13
80	13
79	9
78	13
77	9
76	10
75	18
74	9
73	12
72	9
71	11
70	9
69	7
68	7
67	10
66	10
65	14
64	11
63	4
62	11
61	9
60	5
59	9
58	9
57	9
56	7
55	8
54	10
53	11
52	1
51	14
50	10
49	11
48	7
47	11
46	7
45	13
44	8
43	9
42	8
41	13
40	4
39	13
38	9
37	5
36	4
35	14
34	17
33	11
32	13
31	10
30	14
29	6
28	11
27	9
26	14
25	4
24	8
23	6
22	9
21	14
20	16
19	4
18	14
17	14
16	11
15	9
14	11
13	7
12	5
